Normalized Data/p04_8_normalized_splitx10_0.vrp
NAME:p04_8_NORMALIZED_splitx10_
BEST_KNOWN: 0
COMMENT: 0
DIMENSION: 649
CAPACITY: 1000
EDGE_WEIGHT_FORMAT: FUNCTION
EDGE_WEIGHT_TYPE: EXACT_2D
NODE_COORD_SECTION
1 0.00000 0.00000
2 -9 -27
3 -9 -27
4 -9 -27
5 -9 -27
6 -9 -27
7 13 7
8 13 7
9 13 7
10 8 -49
11 8 -49
12 8 -49
13 1 -12
14 1 -12
15 1 -12
16 1 -12
17 1 -12
18 42 38
19 42 38
20 42 38
21 42 38
22 42 38
23 -15 19
24 -15 19
25 -15 19
26 -15 19
27 -15 19
28 -15 19
29 -3 28
30 -3 28
31 -3 28
32 -3 28
33 -3 28
34 -3 28
35 -27 24
36 -27 24
37 -27 24
38 -27 24
39 -27 24
40 38 -50
41 38 -50
42 38 -50
43 38 -50
44 38 -50
45 13 -19
46 13 -19
47 13 -19
48 13 -19
49 8 -19
50 8 -19
51 8 -19
52 8 -19
53 8 -19
54 -37 10
55 -37 10
56 -37 10
57 -37 10
58 -37 10
59 -37 10
60 -16 -12
61 -16 -12
62 -16 -12
63 -16 -12
64 -16 -12
65 36 14
66 36 14
67 36 14
68 36 14
69 31 -49
70 31 -49
71 31 -49
72 31 -49
73 31 -49
74 -12 -3
75 -12 -3
76 -12 -3
77 -13 -46
78 -13 -46
79 -13 -46
80 -24 4
81 -24 4
82 -24 4
83 -24 4
84 -24 4
85 -24 4
86 -14 -4
87 -14 -4
88 -14 -4
89 -14 -4
90 -14 -4
91 9 -40
92 9 -40
93 9 -40
94 9 -40
95 -16 -46
96 -16 -46
97 -16 -46
98 -16 -46
99 -16 -46
100 -16 -46
101 23 -11
102 23 -11
103 23 -11
104 -17 -30
105 -17 -30
106 -20 -46
107 -20 -46
108 -9 45
109 -9 45
110 -9 45
111 33 -34
112 33 -34
113 33 -34
114 33 -34
115 -10 30
116 -10 30
117 -10 30
118 -10 30
119 43 30
120 43 30
121 43 30
122 43 30
123 -15 29
124 -15 29
125 -15 29
126 -15 29
127 -42 -3
128 -42 -3
129 -42 -3
130 -36 -26
131 -36 -26
132 -36 -26
133 -36 -26
134 -44 -49
135 -44 -49
136 -44 -49
137 -44 -49
138 -5 -9
139 -5 -9
140 -5 -9
141 -26 -48
142 -26 -48
143 40 -7
144 40 -7
145 40 -7
146 40 -7
147 40 48
148 40 48
149 40 48
150 40 48
151 40 48
152 -8 -31
153 -8 -31
154 -8 -31
155 -8 -31
156 -9 -49
157 -40 -4
158 -40 -4
159 -40 -4
160 -40 -4
161 27 -15
162 27 -15
163 -8 -36
164 -8 -36
165 -8 -36
166 -8 -36
167 -8 -36
168 -8 -36
169 -22 -46
170 -22 -46
171 -22 -46
172 -22 -46
173 26 -39
174 26 -39
175 26 -39
176 26 -39
177 -11 5
178 -13 -33
179 -13 -33
180 -13 -33
181 -13 -33
182 -13 -33
183 -13 -33
184 2 26
185 2 26
186 2 26
187 2 26
188 2 26
189 2 26
190 2 26
191 5 -40
192 5 -40
193 5 -40
194 5 -40
195 30 -38
196 30 -38
197 30 -38
198 4 -22
199 4 -22
200 4 -22
201 4 -22
202 4 -22
203 4 -22
204 4 -22
205 31 38
206 31 38
207 31 38
208 31 38
209 -36 -15
210 -36 -15
211 50 11
212 50 11
213 50 11
214 50 11
215 50 11
216 4 5
217 4 5
218 4 5
219 4 5
220 4 5
221 4 5
222 4 5
223 -14 49
224 -14 49
225 16 44
226 16 44
227 16 44
228 16 44
229 16 44
230 16 44
231 16 44
232 46 50
233 46 50
234 -37 -43
235 -37 -43
236 -37 -43
237 -37 -43
238 -37 -43
239 -37 -43
240 17 -49
241 17 -49
242 17 -49
243 17 -49
244 1 -15
245 1 -15
246 1 -15
247 1 -15
248 1 -15
249 1 -15
250 1 -15
251 40 -34
252 40 -34
253 40 -34
254 30 16
255 30 16
256 30 16
257 17 4
258 17 4
259 17 4
260 17 4
261 17 4
262 17 4
263 -33 7
264 -33 7
265 -33 7
266 -33 7
267 -33 7
268 -33 7
269 -33 7
270 -40 -15
271 -40 -15
272 -40 -15
273 28 -16
274 28 -16
275 -11 -44
276 -11 -44
277 -11 -44
278 48 13
279 48 13
280 48 13
281 48 13
282 -37 -21
283 -37 -21
284 -37 -21
285 -37 -21
286 -37 -21
287 -18 29
288 -18 29
289 -18 29
290 -18 29
291 -18 29
292 -5 34
293 -5 34
294 -5 34
295 -5 34
296 -5 34
297 -5 34
298 14 19
299 14 19
300 14 19
301 27 -19
302 27 -19
303 27 -19
304 27 -19
305 46 35
306 46 35
307 46 35
308 46 35
309 46 35
310 46 35
311 46 -22
312 46 -22
313 46 -22
314 46 -22
315 46 -22
316 -36 32
317 -36 32
318 -36 32
319 -36 32
320 -29 -28
321 -29 -28
322 -29 -28
323 -29 -28
324 -29 -28
325 16 -26
326 16 -26
327 16 -26
328 16 -26
329 16 -26
330 16 -26
331 -49 -19
332 -49 -19
333 -49 -19
334 -49 -19
335 -49 -19
336 -49 -19
337 -22 33
338 -22 33
339 21 0
340 21 0
341 21 0
342 21 0
343 21 0
344 21 0
345 44 -30
346 44 -30
347 44 -30
348 44 -30
349 44 -30
350 44 -30
351 44 -30
352 21 40
353 21 40
354 21 40
355 21 40
356 15 45
357 15 45
358 15 45
359 15 45
360 15 45
361 -30 0
362 -30 0
363 -30 0
364 -30 0
365 -30 0
366 -30 0
367 -30 0
368 38 25
369 38 25
370 38 25
371 49 42
372 49 42
373 49 42
374 49 42
375 49 42
376 49 42
377 -45 26
378 -45 26
379 -45 26
380 -45 26
381 -45 26
382 -11 -50
383 -11 -50
384 -11 -50
385 -34 -44
386 -34 -44
387 -34 -44
388 -34 -44
389 -34 -44
390 31 8
391 31 8
392 31 8
393 31 8
394 40 -2
395 40 -2
396 40 -2
397 40 -2
398 40 -2
399 7 2
400 7 2
401 7 2
402 7 2
403 7 2
404 14 -3
405 14 -3
406 14 -3
407 14 -3
408 14 -3
409 14 -3
410 3 19
411 3 19
412 -11 40
413 -11 40
414 -11 40
415 -11 40
416 -20 -19
417 -20 -19
418 -20 -19
419 -43 27
420 -43 27
421 -20 -36
422 -20 -36
423 -20 -36
424 -20 -36
425 -20 -36
426 -20 -36
427 -20 -36
428 -25 43
429 -25 43
430 -36 47
431 -36 47
432 -36 47
433 -4 -7
434 -4 -7
435 -39 44
436 -39 44
437 -39 44
438 -39 44
439 -39 44
440 33 47
441 33 47
442 33 47
443 31 3
444 31 3
445 31 3
446 -4 38
447 -4 38
448 -4 38
449 -4 38
450 -4 38
451 -4 38
452 -4 38
453 41 -22
454 41 -22
455 41 -22
456 41 -22
457 17 11
458 17 11
459 -29 -40
460 -29 -40
461 -29 -40
462 -1 -13
463 -1 -13
464 -1 -13
465 -1 -13
466 47 19
467 47 19
468 47 19
469 47 19
470 -43 -27
471 -43 -27
472 -43 -27
473 -43 -27
474 -43 -27
475 -43 -27
476 -34 49
477 -34 49
478 -34 49
479 -34 49
480 -34 49
481 -34 49
482 -34 49
483 2 38
484 2 38
485 2 38
486 2 38
487 2 38
488 35 27
489 35 27
490 35 27
491 -21 6
492 -21 6
493 -21 6
494 -21 6
495 2 -12
496 2 -12
497 2 -12
498 2 -12
499 2 -12
500 25 12
501 25 12
502 25 12
503 25 12
504 25 12
505 25 12
506 25 12
507 27 -30
508 27 -30
509 27 -30
510 27 -30
511 27 -30
512 -31 -18
513 -31 -18
514 -31 -18
515 -36 34
516 -36 34
517 -36 34
518 -36 34
519 -36 34
520 -36 34
521 -26 11
522 -26 11
523 -26 11
524 6 -32
525 6 -32
526 6 -32
527 6 -32
528 18 -27
529 18 -27
530 18 -27
531 18 -27
532 18 -27
533 4 1
534 4 1
535 4 1
536 4 1
537 4 1
538 -40 30
539 -40 30
540 -40 30
541 -40 30
542 -40 30
543 -40 30
544 -21 -35
545 -21 -35
546 -21 -35
547 -5 22
548 -5 22
549 -5 22
550 20 47
551 20 47
552 20 47
553 47 0
554 47 0
555 47 0
556 47 0
557 47 0
558 44 -10
559 44 -10
560 44 -10
561 44 -10
562 6 37
563 6 37
564 6 37
565 44 49
566 44 49
567 -4 -14
568 -4 -14
569 -4 -14
570 -4 -14
571 -4 -14
572 27 -49
573 27 -49
574 27 -49
575 27 -49
576 -3 -35
577 -3 -35
578 3 21
579 3 21
580 3 21
581 3 21
582 3 21
583 -18 -36
584 -18 -36
585 -32 9
586 -32 9
587 -32 9
588 -32 9
589 -32 9
590 -32 9
591 -21 35
592 -21 35
593 -21 35
594 -21 35
595 17 -4
596 17 -4
597 17 -4
598 17 -4
599 -13 -36
600 -13 -36
601 -13 -36
602 -13 -36
603 37 23
604 37 23
605 37 23
606 37 23
607 37 23
608 37 23
609 -22 -26
610 -22 -26
611 -22 -26
612 -22 -26
613 -31 45
614 -31 45
615 -31 45
616 -2 -12
617 -2 -12
618 -2 -12
619 -2 -12
620 -2 -12
621 -2 -12
622 -25 37
623 -25 37
624 -25 37
625 -25 37
626 -25 37
627 -25 37
628 38 -43
629 38 -43
630 38 -43
631 38 -43
632 16 -44
633 16 -44
634 16 -44
635 16 -44
636 16 -44
637 16 -44
638 -33 14
639 -33 14
640 -33 14
641 -33 14
642 -33 14
643 -33 14
644 -36 -15
645 -36 -15
646 -36 -15
647 -36 -15
648 -36 -15
649 -36 -15
DEMAND_SECTION
1 0
2 200
3 200
4 10
5 10
6 10
7 200
8 200
9 10
10 200
11 200
12 50
13 100
14 50
15 10
16 10
17 10
18 100
19 10
20 10
21 10
22 10
23 200
24 100
25 50
26 10
27 10
28 10
29 200
30 100
31 50
32 10
33 10
34 10
35 200
36 100
37 10
38 10
39 10
40 200
41 50
42 10
43 10
44 10
45 200
46 10
47 10
48 10
49 200
50 200
51 10
52 10
53 10
54 200
55 50
56 10
57 10
58 10
59 10
60 200
61 10
62 10
63 10
64 10
65 200
66 200
67 50
68 10
69 200
70 200
71 10
72 10
73 10
74 200
75 10
76 10
77 200
78 50
79 10
80 200
81 200
82 10
83 10
84 10
85 10
86 100
87 10
88 10
89 10
90 10
91 200
92 100
93 50
94 10
95 200
96 50
97 10
98 10
99 10
100 10
101 200
102 200
103 10
104 100
105 50
106 200
107 10
108 100
109 10
110 10
111 200
112 100
113 10
114 10
115 200
116 50
117 10
118 10
119 200
120 200
121 50
122 10
123 200
124 50
125 10
126 10
127 200
128 50
129 10
130 200
131 50
132 10
133 10
134 100
135 10
136 10
137 10
138 200
139 50
140 10
141 200
142 100
143 200
144 200
145 50
146 10
147 100
148 50
149 10
150 10
151 10
152 200
153 100
154 50
155 10
156 200
157 200
158 100
159 50
160 10
161 200
162 50
163 200
164 200
165 50
166 10
167 10
168 10
169 200
170 100
171 50
172 10
173 200
174 50
175 10
176 10
177 200
178 200
179 100
180 50
181 10
182 10
183 10
184 200
185 200
186 50
187 10
188 10
189 10
190 10
191 200
192 50
193 10
194 10
195 200
196 200
197 10
198 200
199 100
200 50
201 10
202 10
203 10
204 10
205 100
206 50
207 10
208 10
209 200
210 50
211 200
212 100
213 10
214 10
215 10
216 200
217 200
218 50
219 10
220 10
221 10
222 10
223 200
224 100
225 200
226 200
227 50
228 10
229 10
230 10
231 10
232 200
233 100
234 200
235 200
236 50
237 10
238 10
239 10
240 100
241 50
242 10
243 10
244 200
245 200
246 50
247 10
248 10
249 10
250 10
251 200
252 200
253 10
254 200
255 100
256 50
257 200
258 100
259 50
260 10
261 10
262 10
263 200
264 100
265 50
266 10
267 10
268 10
269 10
270 100
271 10
272 10
273 100
274 50
275 200
276 200
277 10
278 100
279 50
280 10
281 10
282 100
283 50
284 10
285 10
286 10
287 100
288 50
289 10
290 10
291 10
292 200
293 100
294 10
295 10
296 10
297 10
298 200
299 100
300 10
301 100
302 50
303 10
304 10
305 200
306 50
307 10
308 10
309 10
310 10
311 200
312 100
313 10
314 10
315 10
316 200
317 200
318 50
319 10
320 200
321 200
322 50
323 10
324 10
325 100
326 50
327 10
328 10
329 10
330 10
331 200
332 200
333 10
334 10
335 10
336 10
337 200
338 10
339 200
340 100
341 10
342 10
343 10
344 10
345 200
346 100
347 50
348 10
349 10
350 10
351 10
352 200
353 10
354 10
355 10
356 100
357 50
358 10
359 10
360 10
361 200
362 200
363 50
364 10
365 10
366 10
367 10
368 200
369 100
370 50
371 100
372 50
373 10
374 10
375 10
376 10
377 200
378 200
379 10
380 10
381 10
382 200
383 50
384 10
385 200
386 10
387 10
388 10
389 10
390 100
391 10
392 10
393 10
394 200
395 200
396 10
397 10
398 10
399 200
400 200
401 50
402 10
403 10
404 200
405 100
406 10
407 10
408 10
409 10
410 200
411 50
412 100
413 50
414 10
415 10
416 200
417 200
418 50
419 100
420 50
421 200
422 200
423 50
424 10
425 10
426 10
427 10
428 200
429 50
430 100
431 50
432 10
433 200
434 10
435 200
436 100
437 10
438 10
439 10
440 200
441 200
442 10
443 200
444 200
445 10
446 200
447 200
448 50
449 10
450 10
451 10
452 10
453 100
454 10
455 10
456 10
457 200
458 10
459 200
460 200
461 10
462 200
463 200
464 10
465 10
466 100
467 50
468 10
469 10
470 200
471 100
472 50
473 10
474 10
475 10
476 200
477 100
478 50
479 10
480 10
481 10
482 10
483 200
484 200
485 50
486 10
487 10
488 200
489 10
490 10
491 200
492 200
493 50
494 10
495 100
496 50
497 10
498 10
499 10
500 200
501 200
502 50
503 10
504 10
505 10
506 10
507 200
508 200
509 10
510 10
511 10
512 200
513 100
514 50
515 200
516 100
517 50
518 10
519 10
520 10
521 200
522 50
523 10
524 100
525 10
526 10
527 10
528 200
529 50
530 10
531 10
532 10
533 200
534 100
535 50
536 10
537 10
538 200
539 50
540 10
541 10
542 10
543 10
544 200
545 200
546 100
547 200
548 200
549 10
550 200
551 200
552 50
553 100
554 10
555 10
556 10
557 10
558 200
559 50
560 10
561 10
562 200
563 200
564 100
565 200
566 50
567 200
568 200
569 10
570 10
571 10
572 100
573 50
574 10
575 10
576 200
577 50
578 100
579 10
580 10
581 10
582 10
583 100
584 50
585 200
586 200
587 50
588 10
589 10
590 10
591 200
592 100
593 50
594 10
595 200
596 100
597 50
598 10
599 200
600 200
601 10
602 10
603 200
604 50
605 10
606 10
607 10
608 10
609 200
610 200
611 10
612 10
613 200
614 200
615 50
616 200
617 50
618 10
619 10
620 10
621 10
622 200
623 100
624 50
625 10
626 10
627 10
628 100
629 10
630 10
631 10
632 200
633 50
634 10
635 10
636 10
637 10
638 200
639 100
640 10
641 10
642 10
643 10
644 200
645 100
646 50
647 10
648 10
649 10
DEPOT_SECTION
1
-1
EOF