Normalized Data/p04_8_normalized_splitx10_0.sol
648 -2 600 598 601 599 180 177 178 179 182 181 -3 5 1 151 152 166 163 162 167 165 164 -4 76 98 99 97 94 95 96 106 105 170 168 -7 6 399 398 532 -8 456 457 503 499 500 257 258 261 259 256 -13 14 12 199 203 200 202 201 198 197 49 48 50 52 51 -23 22 27 124 125 123 122 546 547 548 -26 24 25 290 289 286 287 288 592 590 591 336 34 -29 107 108 109 222 223 412 414 411 413 117 116 115 114 -30 31 33 28 32 185 184 183 186 409 410 -38 35 36 37 317 316 315 318 515 514 519 518 517 516 -44 46 47 45 326 325 328 329 529 527 528 530 506 507 509 508 -59 416 415 608 609 -61 60 62 63 511 512 513 646 645 208 643 644 209 -64 67 66 465 466 467 468 280 279 278 277 212 211 213 210 214 535 536 534 -79 80 491 490 176 -81 84 83 82 56 55 58 57 54 53 639 640 642 641 638 637 522 521 520 492 493 -87 85 156 158 157 159 127 126 128 364 361 362 363 -88 89 86 647 648 269 270 271 331 330 334 333 332 335 469 470 473 472 474 471 -100 102 101 161 160 273 272 300 302 303 301 -103 104 384 387 386 385 388 136 134 133 135 235 237 238 233 234 236 -118 121 119 120 367 606 605 604 602 603 607 255 -138 139 137 567 566 568 570 569 616 620 618 615 617 619 -145 142 552 553 556 554 555 395 393 397 396 394 442 343 341 -153 154 274 276 275 78 77 382 383 381 155 -172 173 175 174 195 194 110 111 112 113 510 -188 189 187 483 485 484 486 482 562 563 561 -196 43 39 40 41 42 70 72 68 71 69 573 574 571 572 324 327 -205 207 232 231 373 371 375 370 372 374 304 305 309 307 306 308 369 368 -220 219 298 297 299 225 228 230 229 226 227 224 356 359 358 355 357 -245 246 248 249 523 91 90 190 193 191 192 575 576 -265 263 377 380 378 379 376 419 418 539 542 537 540 541 538 -285 283 284 282 281 129 130 131 132 323 321 319 320 322 417 -292 293 296 291 295 294 448 450 447 449 445 446 451 578 579 580 581 577 -337 621 623 626 624 614 613 612 427 428 593 -338 342 340 339 595 596 594 597 403 406 404 405 -346 347 345 344 350 348 349 251 252 250 630 627 628 629 531 495 498 -352 354 351 353 551 550 549 206 204 488 487 -365 366 360 267 262 266 268 264 585 584 588 589 587 586 -402 401 400 260 444 443 391 392 390 389 65 253 254 502 505 501 504 -407 408 144 143 558 557 560 559 313 310 314 311 312 453 452 454 455 -421 420 424 426 423 425 422 544 543 545 -433 432 74 73 75 218 216 221 215 217 533 -438 435 437 434 436 431 430 429 479 480 476 478 481 477 475 625 622 -441 439 440 149 148 146 150 147 565 564 17 18 19 21 20 489 -463 462 464 461 244 243 247 16 15 497 496 494 -524 526 525 92 93 10 9 11 240 239 242 241 633 634 632 631 635 636 -583 582 171 169 141 140 458 460 459 610 611 0 





OBJ=
4280.445
BEST_KNOWN=
0.000